NAME : a280
COMMENT : Tour length 3299
TYPE : TOUR
DIMENSION : 280
TOUR_SECTION
1
2
280
3
279
278
4
5
6
9
7
8
10
11
12
13
15
269
270
134
135
136
268
265
264
263
262
261
260
259
258
257
254
253
208
209
252
255
256
249
248
242
243
245
246
231
238
239
240
241
244
247
250
251
230
229
228
227
226
225
224
223
222
221
220
219
218
217
216
215
214
213
212
211
210
207
206
205
204
203
202
198
197
194
195
196
201
200
199
146
145
144
143
142
147
148
141
140
266
267
137
138
139
149
150
178
179
180
181
176
177
151
152
156
153
155
154
124
123
122
121
120
119
157
158
159
160
175
172
171
170
102
103
109
89
90
91
92
97
96
95
94
93
98
99
100
101
169
168
167
166
165
164
163
162
161
174
173
107
106
105
104
108
110
111
112
88
83
82
81
80
79
76
75
74
73
72
71
70
67
66
64
65
85
84
87
113
114
115
117
118
61
60
43
42
41
40
39
38
37
36
35
34
33
32
31
30
125
126
127
128
129
131
130
21
20
19
132
133
18
17
16
271
272
273
274
275
276
277
14
24
23
25
22
26
27
28
29
49
48
47
46
55
54
53
52
51
50
45
44
59
58
57
56
68
69
63
62
116
86
77
78
184
185
187
186
190
189
188
191
192
193
183
182
234
233
232
237
236
235
1
-1
EOF